(set-logic QF_S)
(declare-fun var0 () String)
(assert (RegexIn var0 (RegexConcat (RegexPlus (RegexStar (RegexUnion (RegexPlus (Str2Reg "000")) (RegexPlus (Str2Reg "111"))))) (RegexUnion (RegexStar (RegexUnion (RegexUnion (Str2Reg "22") (Str2Reg "333")) (RegexUnion (Str2Reg "44") (Str2Reg "5")))) (RegexStar (RegexStar (RegexPlus (Str2Reg "666"))))))))
(assert (<= 15 (Length var0)))
(check-sat)